
(set-logic ALL) 

(declare-datatype MyList ((Nil) (Cons (head Real) (tail MyList)) )) 
(declare-fun l0 () MyList) 
(declare-fun l1 () MyList) 
(declare-fun l2 () MyList) 
(declare-fun l3 () MyList) 
(declare-fun i0 () Real) 
(declare-fun i1 () Real) 
(assert (and (= l3 l3) (= l2 Nil) (is-Cons Nil)) )
(assert (and (= l2 l3) (is-Cons Nil) (is-Nil Nil)) )
(assert (not (is-Nil l1)) )
(assert (is-Cons Nil) )
(assert (is-Nil Nil) )
(assert (is-Nil Nil) )
(assert (= l1 Nil) )
(assert (is-Cons Nil) )
(check-sat)
